NAME : ch130.tour
COMMENT : best solution found for ch130 (6190.0)
TYPE : TOUR 
DIMENSION : 130
TOUR_SECTION
9
13
66
12
95
22
46
39
36
21
32
20
17
7
107
113
125
120
77
65
84
124
89
58
29
82
2
116
111
114
27
61
104
127
15
44
4
10
75
108
60
128
123
63
68
85
87
25
6
96
69
106
42
103
126
0
40
38
70
129
49
1
117
79
45
19
92
43
41
3
34
53
16
33
30
26
18
99
14
28
23
115
94
78
86
11
80
102
76
93
88
109
97
67
62
47
24
112
31
35
83
118
110
122
100
81
56
8
55
64
51
74
73
98
72
91
37
105
57
48
71
90
52
119
50
59
54
121
5
101
-1
EOF